(set-info :source |printed by MathSAT|)
(declare-fun call_mesi.ite2.next () Int)
(declare-fun call_mesi.shared_me.next () Int)
(declare-fun call_mesi.ite18 () Int)
(declare-fun call_mesi.ite28.next () Int)
(declare-fun call_Sofar.Sofar.next () Bool)
(declare-fun call_mesi.ite19.next () Int)
(declare-fun call_mesi.flby2.next () Int)
(declare-fun call_mesi.ite8 () Int)
(declare-fun param_etat_me2 () Bool)
(declare-fun call_mesi.ite32.next () Int)
(declare-fun call_mesi.ite10 () Int)
(declare-fun call_mesi.invalid_me () Int)
(declare-fun call_mesi.ite.next () Int)
(declare-fun call_mesi.ite17 () Int)
(declare-fun modified_me.next () Int)
(declare-fun call_mesi.ite30 () Int)
(declare-fun call_mesi.garde_me1.next () Bool)
(declare-fun _OK_ () Bool)
(declare-fun call_mesi.exclusive_me.next () Int)
(declare-fun call_mesi.ite27 () Int)
(declare-fun call_mesi.ite () Int)
(declare-fun call_mesi.ite16.next () Int)
(declare-fun call_mesi.ite6.next () Int)
(declare-fun call_mesi.ite24.next () Int)
(declare-fun call_Sofar.flby () Bool)
(declare-fun call_mesi.garde_me3.next () Bool)
(declare-fun call_mesi.ite9.next () Int)
(declare-fun call_mesi.ite27.next () Int)
(declare-fun param_etat_me1.next () Bool)
(declare-fun call_mesi.modified_me () Int)
(declare-fun exclusive_me () Int)
(declare-fun call_mesi.ite7 () Int)
(declare-fun call_mesi.ite31 () Int)
(declare-fun call_excludes4.excludes.next () Bool)
(declare-fun call_mesi.exclusive_me () Int)
(declare-fun call_excludes4.excludes () Bool)
(declare-fun param_etat_me2.next () Bool)
(declare-fun call_mesi.ite6 () Int)
(declare-fun call_mesi.ite25.next () Int)
(declare-fun call_mesi.flby.next () Int)
(declare-fun shared_me () Int)
(declare-fun env.next () Bool)
(declare-fun call_mesi.ite24 () Int)
(declare-fun call_mesi.flby2 () Int)
(declare-fun env () Bool)
(declare-fun exclusive_me.next () Int)
(declare-fun call_mesi.ite22 () Int)
(declare-fun call_mesi.ite11.next () Int)
(declare-fun call_mesi.ite9 () Int)
(declare-fun call_mesi.ite3.next () Int)
(declare-fun call_mesi.ite2 () Int)
(declare-fun call_mesi.ite16 () Int)
(declare-fun call_mesi.ite14.next () Int)
(declare-fun call_mesi.ite5.next () Int)
(declare-fun call_mesi.ite15.next () Int)
(declare-fun call_mesi.flby () Int)
(declare-fun call_mesi.ite4.next () Int)
(declare-fun call_mesi.ite11 () Int)
(declare-fun param_etat_me4.next () Bool)
(declare-fun call_mesi.ite25 () Int)
(declare-fun call_mesi.garde_me2.next () Bool)
(declare-fun call_mesi.ite30.next () Int)
(declare-fun call_mesi.ite13 () Int)
(declare-fun call_mesi.ite15 () Int)
(declare-fun call_mesi.ite17.next () Int)
(declare-fun call_mesi.ite23.next () Int)
(declare-fun call_mesi.ite12.next () Int)
(declare-fun call_mesi.shared_me () Int)
(declare-fun param_etat_me1 () Bool)
(declare-fun call_mesi.ite19 () Int)
(declare-fun call_mesi.ite21 () Int)
(declare-fun call_Sofar.Sofar () Bool)
(declare-fun param_etat_me3 () Bool)
(declare-fun param_etat_me3.next () Bool)
(declare-fun call_mesi.ite26.next () Int)
(declare-fun call_mesi.ite22.next () Int)
(declare-fun call_mesi.ite29.next () Int)
(declare-fun invalid_me.next () Int)
(declare-fun call_mesi.garde_me4.next () Bool)
(declare-fun call_mesi.flby4.next () Int)
(declare-fun call_mesi.flby4 () Int)
(declare-fun call_mesi.ite21.next () Int)
(declare-fun call_Sofar.flby.next () Bool)
(declare-fun param_etat_me4 () Bool)
(declare-fun call_mesi.ite10.next () Int)
(declare-fun call_mesi.ite14 () Int)
(declare-fun call_mesi.ite32 () Int)
(declare-fun call_mesi.ite5 () Int)
(declare-fun invalid_me () Int)
(declare-fun shared_me.next () Int)
(declare-fun _OK_.next () Bool)
(declare-fun call_mesi.ite13.next () Int)
(declare-fun call_mesi.modified_me.next () Int)
(declare-fun call_mesi.flby3.next () Int)
(declare-fun call_mesi.flby3 () Int)
(declare-fun call_mesi.ite20.next () Int)
(declare-fun call_mesi.ite26 () Int)
(declare-fun call_mesi.ite31.next () Int)
(declare-fun call_mesi.invalid_me.next () Int)
(declare-fun modified_me () Int)
(declare-fun call_mesi.ite3 () Int)
(declare-fun call_mesi.ite29 () Int)
(declare-fun call_mesi.ite18.next () Int)
(declare-fun call_mesi.ite7.next () Int)
(declare-fun call_mesi.ite8.next () Int)
(declare-fun call_mesi.ite23 () Int)
(define-fun .def_1174 () Bool (= call_Sofar.flby.next call_Sofar.Sofar.next))
(define-fun .def_1169 () Bool (and param_etat_me4.next param_etat_me3.next))
(define-fun .def_1164 () Bool (and param_etat_me1.next param_etat_me2.next))
(define-fun .def_1163 () Bool (and param_etat_me3.next param_etat_me1.next))
(define-fun .def_1165 () Bool (or .def_1163 .def_1164))
(define-fun .def_1162 () Bool (and param_etat_me4.next param_etat_me1.next))
(define-fun .def_1166 () Bool (or .def_1162 .def_1165))
(define-fun .def_1161 () Bool (and param_etat_me3.next param_etat_me2.next))
(define-fun .def_1167 () Bool (or .def_1161 .def_1166))
(define-fun .def_1160 () Bool (and param_etat_me4.next param_etat_me2.next))
(define-fun .def_1168 () Bool (or .def_1160 .def_1167))
(define-fun .def_1170 () Bool (or .def_1168 .def_1169))
(define-fun .def_1171 () Bool (not .def_1170))
(define-fun .def_1172 () Bool (= call_excludes4.excludes.next .def_1171))
(define-fun .def_1158 () Bool (= call_mesi.flby4.next call_mesi.invalid_me.next))
(define-fun .def_1156 () Bool (= call_mesi.flby3.next call_mesi.shared_me.next))
(define-fun .def_1154 () Bool (= call_mesi.flby2.next call_mesi.exclusive_me.next))
(define-fun .def_1152 () Bool (= call_mesi.flby.next call_mesi.modified_me.next))
(define-fun .def_1148 () Bool (= call_mesi.ite30.next call_mesi.ite31.next))
(define-fun .def_1149 () Bool (or param_etat_me2.next .def_1148))
(define-fun .def_1145 () Bool (= call_mesi.ite26.next call_mesi.ite31.next))
(define-fun .def_1130 () Bool (not param_etat_me2.next))
(define-fun .def_1146 () Bool (or .def_1130 .def_1145))
(define-fun .def_1142 () Bool (= call_mesi.ite22.next call_mesi.ite23.next))
(define-fun .def_1143 () Bool (or param_etat_me2.next .def_1142))
(define-fun .def_1139 () Bool (= call_mesi.ite18.next call_mesi.ite23.next))
(define-fun .def_1140 () Bool (or .def_1130 .def_1139))
(define-fun .def_1136 () Bool (= call_mesi.ite14.next call_mesi.ite15.next))
(define-fun .def_1137 () Bool (or param_etat_me2.next .def_1136))
(define-fun .def_1133 () Bool (= call_mesi.ite10.next call_mesi.ite15.next))
(define-fun .def_1134 () Bool (or .def_1130 .def_1133))
(define-fun .def_1129 () Bool (= call_mesi.ite2.next call_mesi.ite7.next))
(define-fun .def_1131 () Bool (or .def_1129 .def_1130))
(define-fun .def_1126 () Bool (= call_mesi.ite6.next call_mesi.ite7.next))
(define-fun .def_1128 () Bool (or .def_1126 param_etat_me2.next))
(define-fun .def_1132 () Bool (and .def_1128 .def_1131))
(define-fun .def_1135 () Bool (and .def_1132 .def_1134))
(define-fun .def_1138 () Bool (and .def_1135 .def_1137))
(define-fun .def_1141 () Bool (and .def_1138 .def_1140))
(define-fun .def_1144 () Bool (and .def_1141 .def_1143))
(define-fun .def_1147 () Bool (and .def_1144 .def_1146))
(define-fun .def_1150 () Bool (and .def_1147 .def_1149))
(define-fun .def_1122 () Bool (= call_mesi.ite32.next call_mesi.ite31.next))
(define-fun .def_1123 () Bool (or param_etat_me1.next .def_1122))
(define-fun .def_1118 () Bool (= call_mesi.ite25.next call_mesi.ite32.next))
(define-fun .def_1101 () Bool (not param_etat_me1.next))
(define-fun .def_1119 () Bool (or .def_1101 .def_1118))
(define-fun .def_1115 () Bool (= call_mesi.ite24.next call_mesi.ite23.next))
(define-fun .def_1116 () Bool (or param_etat_me1.next .def_1115))
(define-fun .def_1111 () Bool (= call_mesi.ite17.next call_mesi.ite24.next))
(define-fun .def_1112 () Bool (or .def_1101 .def_1111))
(define-fun .def_1108 () Bool (= call_mesi.ite16.next call_mesi.ite15.next))
(define-fun .def_1109 () Bool (or param_etat_me1.next .def_1108))
(define-fun .def_1104 () Bool (= call_mesi.ite9.next call_mesi.ite16.next))
(define-fun .def_1105 () Bool (or .def_1101 .def_1104))
(define-fun .def_1100 () Bool (= call_mesi.ite.next call_mesi.ite8.next))
(define-fun .def_1102 () Bool (or .def_1100 .def_1101))
(define-fun .def_1097 () Bool (= call_mesi.ite8.next call_mesi.ite7.next))
(define-fun .def_1099 () Bool (or .def_1097 param_etat_me1.next))
(define-fun .def_1103 () Bool (and .def_1099 .def_1102))
(define-fun .def_1106 () Bool (and .def_1103 .def_1105))
(define-fun .def_1110 () Bool (and .def_1106 .def_1109))
(define-fun .def_1113 () Bool (and .def_1110 .def_1112))
(define-fun .def_1117 () Bool (and .def_1113 .def_1116))
(define-fun .def_1120 () Bool (and .def_1117 .def_1119))
(define-fun .def_1124 () Bool (and .def_1120 .def_1123))
(define-fun .def_1094 () Bool (= env.next call_Sofar.Sofar.next))
(define-fun .def_1091 () Bool (= invalid_me.next call_mesi.invalid_me.next))
(define-fun .def_1087 () Bool (= shared_me.next call_mesi.shared_me.next))
(define-fun .def_1084 () Bool (= exclusive_me.next call_mesi.exclusive_me.next))
(define-fun .def_1081 () Bool (= modified_me.next call_mesi.modified_me.next))
(define-fun .def_1076 () Bool (= call_mesi.ite29.next call_mesi.ite30.next))
(define-fun .def_1077 () Bool (or param_etat_me3.next .def_1076))
(define-fun .def_1073 () Bool (= call_mesi.ite27.next call_mesi.ite30.next))
(define-fun .def_1055 () Bool (not param_etat_me3.next))
(define-fun .def_1074 () Bool (or .def_1055 .def_1073))
(define-fun .def_1069 () Bool (= call_mesi.ite21.next call_mesi.ite22.next))
(define-fun .def_1070 () Bool (or param_etat_me3.next .def_1069))
(define-fun .def_1066 () Bool (= call_mesi.ite19.next call_mesi.ite22.next))
(define-fun .def_1067 () Bool (or .def_1055 .def_1066))
(define-fun .def_1062 () Bool (= call_mesi.ite13.next call_mesi.ite14.next))
(define-fun .def_1063 () Bool (or param_etat_me3.next .def_1062))
(define-fun .def_1059 () Bool (= call_mesi.ite11.next call_mesi.ite14.next))
(define-fun .def_1060 () Bool (or .def_1055 .def_1059))
(define-fun .def_1054 () Bool (= call_mesi.ite3.next call_mesi.ite6.next))
(define-fun .def_1056 () Bool (or .def_1054 .def_1055))
(define-fun .def_1051 () Bool (= call_mesi.ite5.next call_mesi.ite6.next))
(define-fun .def_1053 () Bool (or .def_1051 param_etat_me3.next))
(define-fun .def_1057 () Bool (and .def_1053 .def_1056))
(define-fun .def_1061 () Bool (and .def_1057 .def_1060))
(define-fun .def_1064 () Bool (and .def_1061 .def_1063))
(define-fun .def_1068 () Bool (and .def_1064 .def_1067))
(define-fun .def_1071 () Bool (and .def_1068 .def_1070))
(define-fun .def_1075 () Bool (and .def_1071 .def_1074))
(define-fun .def_1078 () Bool (and .def_1075 .def_1077))
(define-fun .def_1045 () Bool (<= 0 exclusive_me.next))
(define-fun .def_1043 () Bool (<= modified_me.next 2))
(define-fun .def_1046 () Bool (and .def_1043 .def_1045))
(define-fun .def_1041 () Bool (<= shared_me.next 1))
(define-fun .def_1039 () Bool (<= modified_me.next 1))
(define-fun .def_1042 () Bool (or .def_1039 .def_1041))
(define-fun .def_1047 () Bool (and .def_1042 .def_1046))
(define-fun .def_1038 () Bool (not env.next))
(define-fun .def_1048 () Bool (or .def_1038 .def_1047))
(define-fun .def_1049 () Bool (= _OK_.next .def_1048))
(define-fun .def_1079 () Bool (and .def_1049 .def_1078))
(define-fun .def_1082 () Bool (and .def_1079 .def_1081))
(define-fun .def_1085 () Bool (and .def_1082 .def_1084))
(define-fun .def_1088 () Bool (and .def_1085 .def_1087))
(define-fun .def_1092 () Bool (and .def_1088 .def_1091))
(define-fun .def_1095 () Bool (and .def_1092 .def_1094))
(define-fun .def_1125 () Bool (and .def_1095 .def_1124))
(define-fun .def_1151 () Bool (and .def_1125 .def_1150))
(define-fun .def_1153 () Bool (and .def_1151 .def_1152))
(define-fun .def_1155 () Bool (and .def_1153 .def_1154))
(define-fun .def_1157 () Bool (and .def_1155 .def_1156))
(define-fun .def_1159 () Bool (and .def_1157 .def_1158))
(define-fun .def_1173 () Bool (and .def_1159 .def_1172))
(define-fun .def_1175 () Bool (and .def_1173 .def_1174))
(define-fun .def_820 () Bool (= call_Sofar.flby call_Sofar.Sofar))
(define-fun .def_815 () Bool (and param_etat_me4 param_etat_me3))
(define-fun .def_810 () Bool (and param_etat_me1 param_etat_me2))
(define-fun .def_809 () Bool (and param_etat_me3 param_etat_me1))
(define-fun .def_811 () Bool (or .def_809 .def_810))
(define-fun .def_808 () Bool (and param_etat_me4 param_etat_me1))
(define-fun .def_812 () Bool (or .def_808 .def_811))
(define-fun .def_807 () Bool (and param_etat_me3 param_etat_me2))
(define-fun .def_813 () Bool (or .def_807 .def_812))
(define-fun .def_806 () Bool (and param_etat_me4 param_etat_me2))
(define-fun .def_814 () Bool (or .def_806 .def_813))
(define-fun .def_816 () Bool (or .def_814 .def_815))
(define-fun .def_817 () Bool (not .def_816))
(define-fun .def_818 () Bool (= call_excludes4.excludes .def_817))
(define-fun .def_804 () Bool (= call_mesi.flby4 call_mesi.invalid_me))
(define-fun .def_802 () Bool (= call_mesi.flby3 call_mesi.shared_me))
(define-fun .def_800 () Bool (= call_mesi.flby2 call_mesi.exclusive_me))
(define-fun .def_798 () Bool (= call_mesi.flby call_mesi.modified_me))
(define-fun .def_794 () Bool (= call_mesi.ite30 call_mesi.ite31))
(define-fun .def_795 () Bool (or param_etat_me2 .def_794))
(define-fun .def_791 () Bool (= call_mesi.ite31 call_mesi.ite26))
(define-fun .def_773 () Bool (not param_etat_me2))
(define-fun .def_792 () Bool (or .def_773 .def_791))
(define-fun .def_787 () Bool (= call_mesi.ite22 call_mesi.ite23))
(define-fun .def_788 () Bool (or param_etat_me2 .def_787))
(define-fun .def_784 () Bool (= call_mesi.ite23 call_mesi.ite18))
(define-fun .def_785 () Bool (or .def_773 .def_784))
(define-fun .def_780 () Bool (= call_mesi.ite14 call_mesi.ite15))
(define-fun .def_781 () Bool (or param_etat_me2 .def_780))
(define-fun .def_777 () Bool (= call_mesi.ite15 call_mesi.ite10))
(define-fun .def_778 () Bool (or .def_773 .def_777))
(define-fun .def_772 () Bool (= call_mesi.ite7 call_mesi.ite2))
(define-fun .def_774 () Bool (or .def_772 .def_773))
(define-fun .def_768 () Bool (= call_mesi.ite6 call_mesi.ite7))
(define-fun .def_770 () Bool (or .def_768 param_etat_me2))
(define-fun .def_775 () Bool (and .def_770 .def_774))
(define-fun .def_779 () Bool (and .def_775 .def_778))
(define-fun .def_782 () Bool (and .def_779 .def_781))
(define-fun .def_786 () Bool (and .def_782 .def_785))
(define-fun .def_789 () Bool (and .def_786 .def_788))
(define-fun .def_793 () Bool (and .def_789 .def_792))
(define-fun .def_796 () Bool (and .def_793 .def_795))
(define-fun .def_764 () Bool (= call_mesi.ite32 call_mesi.ite31))
(define-fun .def_765 () Bool (or param_etat_me1 .def_764))
(define-fun .def_760 () Bool (= call_mesi.ite25 call_mesi.ite32))
(define-fun .def_738 () Bool (not param_etat_me1))
(define-fun .def_761 () Bool (or .def_738 .def_760))
(define-fun .def_755 () Bool (= call_mesi.ite24 call_mesi.ite23))
(define-fun .def_756 () Bool (or param_etat_me1 .def_755))
(define-fun .def_751 () Bool (= call_mesi.ite17 call_mesi.ite24))
(define-fun .def_752 () Bool (or .def_738 .def_751))
(define-fun .def_746 () Bool (= call_mesi.ite16 call_mesi.ite15))
(define-fun .def_747 () Bool (or param_etat_me1 .def_746))
(define-fun .def_742 () Bool (= call_mesi.ite9 call_mesi.ite16))
(define-fun .def_743 () Bool (or .def_738 .def_742))
(define-fun .def_737 () Bool (= call_mesi.ite call_mesi.ite8))
(define-fun .def_739 () Bool (or .def_737 .def_738))
(define-fun .def_734 () Bool (= call_mesi.ite8 call_mesi.ite7))
(define-fun .def_736 () Bool (or .def_734 param_etat_me1))
(define-fun .def_740 () Bool (and .def_736 .def_739))
(define-fun .def_744 () Bool (and .def_740 .def_743))
(define-fun .def_748 () Bool (and .def_744 .def_747))
(define-fun .def_753 () Bool (and .def_748 .def_752))
(define-fun .def_757 () Bool (and .def_753 .def_756))
(define-fun .def_762 () Bool (and .def_757 .def_761))
(define-fun .def_766 () Bool (and .def_762 .def_765))
(define-fun .def_730 () Bool (= env call_Sofar.Sofar))
(define-fun .def_727 () Bool (= invalid_me call_mesi.invalid_me))
(define-fun .def_723 () Bool (= shared_me call_mesi.shared_me))
(define-fun .def_720 () Bool (= exclusive_me call_mesi.exclusive_me))
(define-fun .def_717 () Bool (= modified_me call_mesi.modified_me))
(define-fun .def_712 () Bool (= call_mesi.ite29 call_mesi.ite30))
(define-fun .def_713 () Bool (or param_etat_me3 .def_712))
(define-fun .def_709 () Bool (= call_mesi.ite27 call_mesi.ite30))
(define-fun .def_690 () Bool (not param_etat_me3))
(define-fun .def_710 () Bool (or .def_690 .def_709))
(define-fun .def_704 () Bool (= call_mesi.ite21 call_mesi.ite22))
(define-fun .def_705 () Bool (or param_etat_me3 .def_704))
(define-fun .def_701 () Bool (= call_mesi.ite19 call_mesi.ite22))
(define-fun .def_702 () Bool (or .def_690 .def_701))
(define-fun .def_697 () Bool (= call_mesi.ite13 call_mesi.ite14))
(define-fun .def_698 () Bool (or param_etat_me3 .def_697))
(define-fun .def_694 () Bool (= call_mesi.ite11 call_mesi.ite14))
(define-fun .def_695 () Bool (or .def_690 .def_694))
(define-fun .def_689 () Bool (= call_mesi.ite3 call_mesi.ite6))
(define-fun .def_691 () Bool (or .def_689 .def_690))
(define-fun .def_686 () Bool (= call_mesi.ite5 call_mesi.ite6))
(define-fun .def_688 () Bool (or .def_686 param_etat_me3))
(define-fun .def_692 () Bool (and .def_688 .def_691))
(define-fun .def_696 () Bool (and .def_692 .def_695))
(define-fun .def_699 () Bool (and .def_696 .def_698))
(define-fun .def_703 () Bool (and .def_699 .def_702))
(define-fun .def_706 () Bool (and .def_703 .def_705))
(define-fun .def_711 () Bool (and .def_706 .def_710))
(define-fun .def_714 () Bool (and .def_711 .def_713))
(define-fun .def_680 () Bool (<= 0 exclusive_me))
(define-fun .def_678 () Bool (<= modified_me 2))
(define-fun .def_681 () Bool (and .def_678 .def_680))
(define-fun .def_676 () Bool (<= shared_me 1))
(define-fun .def_674 () Bool (<= modified_me 1))
(define-fun .def_677 () Bool (or .def_674 .def_676))
(define-fun .def_682 () Bool (and .def_677 .def_681))
(define-fun .def_673 () Bool (not env))
(define-fun .def_683 () Bool (or .def_673 .def_682))
(define-fun .def_684 () Bool (= _OK_ .def_683))
(define-fun .def_715 () Bool (and .def_684 .def_714))
(define-fun .def_718 () Bool (and .def_715 .def_717))
(define-fun .def_721 () Bool (and .def_718 .def_720))
(define-fun .def_724 () Bool (and .def_721 .def_723))
(define-fun .def_728 () Bool (and .def_724 .def_727))
(define-fun .def_731 () Bool (and .def_728 .def_730))
(define-fun .def_767 () Bool (and .def_731 .def_766))
(define-fun .def_797 () Bool (and .def_767 .def_796))
(define-fun .def_799 () Bool (and .def_797 .def_798))
(define-fun .def_801 () Bool (and .def_799 .def_800))
(define-fun .def_803 () Bool (and .def_801 .def_802))
(define-fun .def_805 () Bool (and .def_803 .def_804))
(define-fun .def_819 () Bool (and .def_805 .def_818))
(define-fun .def_821 () Bool (and .def_819 .def_820))
(define-fun .def_1176 () Bool (and .def_821 .def_1175))
(define-fun .def_1029 () Bool (<= 0 modified_me.next))
(define-fun .def_1031 () Bool (and .def_1029 call_excludes4.excludes.next))
(define-fun .def_1032 () Bool (and call_Sofar.Sofar .def_1031))
(define-fun .def_1034 () Bool (= .def_1032 call_Sofar.flby.next))
(define-fun .def_1026 () Bool (= call_mesi.ite32.next call_mesi.flby4.next))
(define-fun .def_1022 () Bool (= call_mesi.ite24.next call_mesi.flby3.next))
(define-fun .def_1018 () Bool (= call_mesi.ite16.next call_mesi.flby2.next))
(define-fun .def_1014 () Bool (= call_mesi.ite8.next call_mesi.flby.next))
(define-fun .def_982 () Bool (<= 1 call_mesi.invalid_me))
(define-fun .def_1009 () Bool (= call_mesi.garde_me4.next .def_982))
(define-fun .def_1006 () Bool (= call_mesi.ite20.next 0))
(define-fun .def_885 () Bool (not call_mesi.garde_me4.next))
(define-fun .def_1007 () Bool (or .def_885 .def_1006))
(define-fun .def_1003 () Bool (= call_mesi.ite4.next 0))
(define-fun .def_1004 () Bool (or .def_885 .def_1003))
(define-fun .def_1001 () Bool (= call_mesi.ite12.next 1))
(define-fun .def_1002 () Bool (or .def_885 .def_1001))
(define-fun .def_1005 () Bool (and .def_1002 .def_1004))
(define-fun .def_1008 () Bool (and .def_1005 .def_1007))
(define-fun .def_1010 () Bool (and .def_1008 .def_1009))
(define-fun .def_997 () Bool (<= 1 call_mesi.shared_me))
(define-fun .def_998 () Bool (= call_mesi.garde_me3.next .def_997))
(define-fun .def_994 () Bool (= call_mesi.ite19.next 0))
(define-fun .def_871 () Bool (not call_mesi.garde_me3.next))
(define-fun .def_995 () Bool (or .def_871 .def_994))
(define-fun .def_991 () Bool (= call_mesi.ite3.next 0))
(define-fun .def_992 () Bool (or .def_871 .def_991))
(define-fun .def_989 () Bool (= call_mesi.ite11.next 1))
(define-fun .def_990 () Bool (or .def_871 .def_989))
(define-fun .def_993 () Bool (and .def_990 .def_992))
(define-fun .def_996 () Bool (and .def_993 .def_995))
(define-fun .def_999 () Bool (and .def_996 .def_998))
(define-fun .def_986 () Bool (<= 1 call_mesi.exclusive_me))
(define-fun .def_987 () Bool (= call_mesi.garde_me2.next .def_986))
(define-fun .def_983 () Bool (= call_mesi.garde_me1.next .def_982))
(define-fun .def_979 () Bool (= call_mesi.ite.next 0))
(define-fun .def_857 () Bool (not call_mesi.garde_me1.next))
(define-fun .def_980 () Bool (or .def_857 .def_979))
(define-fun .def_977 () Bool (= call_mesi.ite9.next 0))
(define-fun .def_978 () Bool (or .def_857 .def_977))
(define-fun .def_981 () Bool (and .def_978 .def_980))
(define-fun .def_984 () Bool (and .def_981 .def_983))
(define-fun .def_973 () Bool (= call_mesi.invalid_me call_mesi.ite28.next))
(define-fun .def_974 () Bool (or call_mesi.garde_me4.next .def_973))
(define-fun .def_970 () Bool (= call_mesi.invalid_me call_mesi.ite27.next))
(define-fun .def_971 () Bool (or call_mesi.garde_me3.next .def_970))
(define-fun .def_965 () Bool (= call_mesi.invalid_me call_mesi.ite26.next))
(define-fun .def_968 () Bool (or call_mesi.garde_me2.next .def_965))
(define-fun .def_828 () Bool (not call_mesi.garde_me2.next))
(define-fun .def_966 () Bool (or .def_828 .def_965))
(define-fun .def_959 () Int (* (- 1) call_mesi.ite25.next))
(define-fun .def_960 () Int (+ call_mesi.invalid_me .def_959))
(define-fun .def_961 () Bool (= .def_960 1))
(define-fun .def_962 () Bool (or .def_857 .def_961))
(define-fun .def_957 () Bool (= call_mesi.invalid_me call_mesi.ite25.next))
(define-fun .def_958 () Bool (or call_mesi.garde_me1.next .def_957))
(define-fun .def_963 () Bool (and .def_958 .def_962))
(define-fun .def_967 () Bool (and .def_963 .def_966))
(define-fun .def_969 () Bool (and .def_967 .def_968))
(define-fun .def_972 () Bool (and .def_969 .def_971))
(define-fun .def_975 () Bool (and .def_972 .def_974))
(define-fun .def_952 () Bool (= call_mesi.shared_me call_mesi.ite20.next))
(define-fun .def_953 () Bool (or call_mesi.garde_me4.next .def_952))
(define-fun .def_949 () Bool (= call_mesi.shared_me call_mesi.ite19.next))
(define-fun .def_950 () Bool (or call_mesi.garde_me3.next .def_949))
(define-fun .def_941 () Bool (= call_mesi.shared_me call_mesi.ite18.next))
(define-fun .def_946 () Bool (or call_mesi.garde_me2.next .def_941))
(define-fun .def_943 () Bool (= call_mesi.shared_me call_mesi.ite17.next))
(define-fun .def_944 () Bool (or call_mesi.garde_me1.next .def_943))
(define-fun .def_942 () Bool (or .def_828 .def_941))
(define-fun .def_945 () Bool (and .def_942 .def_944))
(define-fun .def_947 () Bool (and .def_945 .def_946))
(define-fun .def_951 () Bool (and .def_947 .def_950))
(define-fun .def_954 () Bool (and .def_951 .def_953))
(define-fun .def_936 () Bool (= call_mesi.exclusive_me call_mesi.ite12.next))
(define-fun .def_937 () Bool (or call_mesi.garde_me4.next .def_936))
(define-fun .def_933 () Bool (= call_mesi.exclusive_me call_mesi.ite11.next))
(define-fun .def_934 () Bool (or call_mesi.garde_me3.next .def_933))
(define-fun .def_929 () Bool (= call_mesi.exclusive_me call_mesi.ite10.next))
(define-fun .def_930 () Bool (or call_mesi.garde_me2.next .def_929))
(define-fun .def_926 () Bool (= call_mesi.exclusive_me call_mesi.ite9.next))
(define-fun .def_927 () Bool (or call_mesi.garde_me1.next .def_926))
(define-fun .def_921 () Int (* (- 1) call_mesi.ite10.next))
(define-fun .def_922 () Int (+ call_mesi.exclusive_me .def_921))
(define-fun .def_923 () Bool (= .def_922 1))
(define-fun .def_924 () Bool (or .def_828 .def_923))
(define-fun .def_928 () Bool (and .def_924 .def_927))
(define-fun .def_931 () Bool (and .def_928 .def_930))
(define-fun .def_935 () Bool (and .def_931 .def_934))
(define-fun .def_938 () Bool (and .def_935 .def_937))
(define-fun .def_916 () Bool (= call_mesi.invalid_me call_mesi.ite29.next))
(define-fun .def_917 () Bool (or param_etat_me4.next .def_916))
(define-fun .def_913 () Bool (= call_mesi.ite28.next call_mesi.ite29.next))
(define-fun .def_893 () Bool (not param_etat_me4.next))
(define-fun .def_914 () Bool (or .def_893 .def_913))
(define-fun .def_909 () Bool (= call_mesi.shared_me call_mesi.ite21.next))
(define-fun .def_910 () Bool (or param_etat_me4.next .def_909))
(define-fun .def_906 () Bool (= call_mesi.ite20.next call_mesi.ite21.next))
(define-fun .def_907 () Bool (or .def_893 .def_906))
(define-fun .def_901 () Bool (= call_mesi.exclusive_me call_mesi.ite13.next))
(define-fun .def_902 () Bool (or param_etat_me4.next .def_901))
(define-fun .def_898 () Bool (= call_mesi.ite12.next call_mesi.ite13.next))
(define-fun .def_899 () Bool (or .def_893 .def_898))
(define-fun .def_892 () Bool (= call_mesi.ite4.next call_mesi.ite5.next))
(define-fun .def_894 () Bool (or .def_892 .def_893))
(define-fun .def_889 () Bool (= call_mesi.modified_me call_mesi.ite5.next))
(define-fun .def_891 () Bool (or .def_889 param_etat_me4.next))
(define-fun .def_895 () Bool (and .def_891 .def_894))
(define-fun .def_900 () Bool (and .def_895 .def_899))
(define-fun .def_903 () Bool (and .def_900 .def_902))
(define-fun .def_908 () Bool (and .def_903 .def_907))
(define-fun .def_911 () Bool (and .def_908 .def_910))
(define-fun .def_915 () Bool (and .def_911 .def_914))
(define-fun .def_918 () Bool (and .def_915 .def_917))
(define-fun .def_875 () Int (* (- 1) call_mesi.ite28.next))
(define-fun .def_880 () Int (+ call_mesi.invalid_me .def_875))
(define-fun .def_881 () Int (+ call_mesi.shared_me .def_880))
(define-fun .def_882 () Int (+ call_mesi.exclusive_me .def_881))
(define-fun .def_883 () Int (+ call_mesi.modified_me .def_882))
(define-fun .def_884 () Bool (= .def_883 1))
(define-fun .def_886 () Bool (or .def_884 .def_885))
(define-fun .def_861 () Int (* (- 1) call_mesi.ite27.next))
(define-fun .def_866 () Int (+ call_mesi.invalid_me .def_861))
(define-fun .def_867 () Int (+ call_mesi.shared_me .def_866))
(define-fun .def_868 () Int (+ call_mesi.exclusive_me .def_867))
(define-fun .def_869 () Int (+ call_mesi.modified_me .def_868))
(define-fun .def_870 () Bool (= .def_869 1))
(define-fun .def_872 () Bool (or .def_870 .def_871))
(define-fun .def_849 () Int (* (- 1) call_mesi.ite17.next))
(define-fun .def_853 () Int (+ call_mesi.shared_me .def_849))
(define-fun .def_854 () Int (+ call_mesi.exclusive_me .def_853))
(define-fun .def_855 () Int (+ call_mesi.modified_me .def_854))
(define-fun .def_856 () Bool (= .def_855 1))
(define-fun .def_858 () Bool (or .def_856 .def_857))
(define-fun .def_844 () Bool (= call_mesi.modified_me call_mesi.ite4.next))
(define-fun .def_846 () Bool (or .def_844 call_mesi.garde_me4.next))
(define-fun .def_839 () Bool (= call_mesi.modified_me call_mesi.ite3.next))
(define-fun .def_841 () Bool (or .def_839 call_mesi.garde_me3.next))
(define-fun .def_835 () Bool (= call_mesi.modified_me call_mesi.ite2.next))
(define-fun .def_836 () Bool (or call_mesi.garde_me2.next .def_835))
(define-fun .def_831 () Bool (= call_mesi.modified_me call_mesi.ite.next))
(define-fun .def_833 () Bool (or .def_831 call_mesi.garde_me1.next))
(define-fun .def_824 () Int (* (- 1) call_mesi.ite2.next))
(define-fun .def_825 () Int (+ call_mesi.modified_me .def_824))
(define-fun .def_826 () Bool (= .def_825 1))
(define-fun .def_829 () Bool (or .def_826 .def_828))
(define-fun .def_834 () Bool (and .def_829 .def_833))
(define-fun .def_837 () Bool (and .def_834 .def_836))
(define-fun .def_842 () Bool (and .def_837 .def_841))
(define-fun .def_847 () Bool (and .def_842 .def_846))
(define-fun .def_859 () Bool (and .def_847 .def_858))
(define-fun .def_873 () Bool (and .def_859 .def_872))
(define-fun .def_887 () Bool (and .def_873 .def_886))
(define-fun .def_919 () Bool (and .def_887 .def_918))
(define-fun .def_939 () Bool (and .def_919 .def_938))
(define-fun .def_955 () Bool (and .def_939 .def_954))
(define-fun .def_976 () Bool (and .def_955 .def_975))
(define-fun .def_985 () Bool (and .def_976 .def_984))
(define-fun .def_988 () Bool (and .def_985 .def_987))
(define-fun .def_1000 () Bool (and .def_988 .def_999))
(define-fun .def_1011 () Bool (and .def_1000 .def_1010))
(define-fun .def_1015 () Bool (and .def_1011 .def_1014))
(define-fun .def_1019 () Bool (and .def_1015 .def_1018))
(define-fun .def_1023 () Bool (and .def_1019 .def_1022))
(define-fun .def_1027 () Bool (and .def_1023 .def_1026))
(define-fun .def_1035 () Bool (and .def_1027 .def_1034))
(define-fun .def_1177 () Bool (and .def_1035 .def_1176))
(assert .def_1177)
